
Gurobi 6.5.2 (win64) logging started 07/22/16 22:04:38


Gurobi 6.5.2 (win64) logging started 07/22/16 22:04:38

Optimize a model with 3724 rows, 367 columns and 7723 nonzeros
Coefficient statistics:
  Matrix range    [1e+00, 1e+00]
  Objective range [2e+00, 4e+02]
  Bounds range    [1e+00, 1e+00]
  RHS range       [1e+00, 1e+00]
Found heuristic solution: objective -0
Presolve removed 3585 rows and 45 columns
Presolve time: 0.00s
Presolved: 139 rows, 322 columns, 1064 nonzeros
Variable types: 0 continuous, 322 integer (322 binary)

Root relaxation: objective 1.866000e+03, 127 iterations, 0.00 seconds

    Nodes    |    Current Node    |     Objective Bounds      |     Work
 Expl Unexpl |  Obj  Depth IntInf | Incumbent    BestBd   Gap | It/Node Time

*    0     0               0    1866.0000000 1866.00000  0.00%     -    0s

Explored 0 nodes (127 simplex iterations) in 0.00 seconds
Thread count was 8 (of 8 available processors)

Optimal solution found (tolerance 1.00e-04)
Best objective 1.866000000000e+03, best bound 1.866000000000e+03, gap 0.0%

Wrote requested result file 'H1\instance28\\Results28.lp'

